objective value:                                11233
t_x_1                                               1 	(obj:26)
t_x_6                                               1 	(obj:12)
t_x_13                                              1 	(obj:65)
t_x_18                                              1 	(obj:4)
t_x_20                                              1 	(obj:40)
t_x_22                                              1 	(obj:38)
t_x_23                                              1 	(obj:13)
t_x_24                                              1 	(obj:17)
t_x_27                                              1 	(obj:42)
t_x_32                                              1 	(obj:8)
t_x_33                                              1 	(obj:15)
t_x_37                                              1 	(obj:28)
t_x_40                                              1 	(obj:20)
t_x_46                                              1 	(obj:37)
t_x_47                                              1 	(obj:18)
t_x_48                                              1 	(obj:11)
t_x_54                                              1 	(obj:36)
t_x_55                                              1 	(obj:10)
t_x_57                                              1 	(obj:5)
t_x_58                                              1 	(obj:20)
t_x_61                                              1 	(obj:23)
t_x_62                                              1 	(obj:8)
t_x_63                                              1 	(obj:11)
t_x_65                                              1 	(obj:23)
t_x_67                                              1 	(obj:9)
t_x_70                                              1 	(obj:39)
t_x_74                                              1 	(obj:58)
t_x_77                                              1 	(obj:20)
t_x_78                                              1 	(obj:48)
t_x_83                                              1 	(obj:28)
t_x_89                                              1 	(obj:9)
t_x_92                                              1 	(obj:4)
t_x_97                                              1 	(obj:22)
t_x_98                                              1 	(obj:46)
t_x_99                                              1 	(obj:3)
t_x_103                                             1 	(obj:52)
t_x_109                                             1 	(obj:19)
t_x_116                                             1 	(obj:44)
t_x_118                                             1 	(obj:0)
t_x_128                                             1 	(obj:6)
t_x_129                                             1 	(obj:32)
t_x_130                                             1 	(obj:4)
t_x_134                                             1 	(obj:20)
t_x_138                                             1 	(obj:12)
t_x_144                                             1 	(obj:27)
t_x_148                                             1 	(obj:42)
t_x_154                                             1 	(obj:9)
t_x_158                                             1 	(obj:22)
t_x_160                                             1 	(obj:44)
t_x_163                                             1 	(obj:5)
t_x_165                                             1 	(obj:23)
t_x_166                                             1 	(obj:30)
t_x_170                                             1 	(obj:9)
t_x_173                                             1 	(obj:15)
t_x_177                                             1 	(obj:9)
t_x_179                                             1 	(obj:22)
t_x_187                                             1 	(obj:7)
t_x_191                                             1 	(obj:18)
t_x_194                                             1 	(obj:0)
t_x_199                                             1 	(obj:9)
t_x_200                                             1 	(obj:8)
t_x_208                                             1 	(obj:12)
t_x_209                                             1 	(obj:14)
t_x_213                                             1 	(obj:35)
t_x_214                                             1 	(obj:15)
t_x_216                                             1 	(obj:8)
t_x_219                                             1 	(obj:53)
t_x_227                                             1 	(obj:10)
t_x_235                                             1 	(obj:8)
t_x_236                                             1 	(obj:19)
t_x_239                                             1 	(obj:32)
t_x_244                                             1 	(obj:30)
t_x_250                                             1 	(obj:22)
t_x_253                                             1 	(obj:7)
t_x_254                                             1 	(obj:39)
t_x_260                                             1 	(obj:24)
t_x_266                                             1 	(obj:10)
t_x_270                                             1 	(obj:18)
t_x_272                                             1 	(obj:6)
t_x_275                                             1 	(obj:26)
t_x_276                                             1 	(obj:5)
t_x_281                                             1 	(obj:0)
t_x_291                                             1 	(obj:25)
t_x_292                                             1 	(obj:46)
t_x_299                                             1 	(obj:37)
t_x_300                                             1 	(obj:45)
t_x_302                                             1 	(obj:30)
t_x_309                                             1 	(obj:11)
t_x_315                                             1 	(obj:11)
t_x_317                                             1 	(obj:21)
t_x_318                                             1 	(obj:6)
t_x_320                                             1 	(obj:4)
t_x_322                                             1 	(obj:16)
t_x_325                                             1 	(obj:12)
t_x_330                                             1 	(obj:73)
t_x_337                                             1 	(obj:8)
t_x_343                                             1 	(obj:61)
t_x_344                                             1 	(obj:2)
t_x_352                                             1 	(obj:25)
t_x_354                                             1 	(obj:7)
t_x_355                                             1 	(obj:28)
t_x_358                                             1 	(obj:26)
t_x_359                                             1 	(obj:27)
t_x_363                                             1 	(obj:38)
t_x_365                                             1 	(obj:30)
t_x_370                                             1 	(obj:16)
t_x_372                                             1 	(obj:13)
t_x_374                                             1 	(obj:21)
t_x_377                                             1 	(obj:9)
t_x_379                                             1 	(obj:2)
t_x_385                                             1 	(obj:10)
t_x_399                                             1 	(obj:16)
t_x_402                                             1 	(obj:24)
t_x_403                                             1 	(obj:24)
t_x_408                                             1 	(obj:28)
t_x_410                                             1 	(obj:12)
t_x_415                                             1 	(obj:12)
t_x_416                                             1 	(obj:7)
t_x_418                                             1 	(obj:46)
t_x_424                                             1 	(obj:9)
t_x_426                                             1 	(obj:13)
t_x_427                                             1 	(obj:15)
t_x_431                                             1 	(obj:13)
t_x_433                                             1 	(obj:25)
t_x_435                                             1 	(obj:10)
t_x_436                                             1 	(obj:28)
t_x_437                                             1 	(obj:8)
t_x_439                                             1 	(obj:5)
t_x_444                                             1 	(obj:12)
t_x_447                                             1 	(obj:4)
t_x_451                                             1 	(obj:6)
t_x_453                                             1 	(obj:11)
t_x_455                                             1 	(obj:14)
t_x_457                                             1 	(obj:11)
t_x_459                                             1 	(obj:16)
t_x_464                                             1 	(obj:17)
t_x_465                                             1 	(obj:27)
t_x_466                                             1 	(obj:58)
t_x_468                                             1 	(obj:17)
t_x_470                                             1 	(obj:31)
t_x_471                                             1 	(obj:16)
t_x_485                                             1 	(obj:29)
t_x_486                                             1 	(obj:17)
t_x_496                                             1 	(obj:42)
t_x_497                                             1 	(obj:6)
t_x_499                                             1 	(obj:4)
t_x_500                                             1 	(obj:15)
t_x_505                                             1 	(obj:43)
t_x_507                                             1 	(obj:18)
t_x_508                                             1 	(obj:3)
t_x_509                                             1 	(obj:24)
t_x_511                                             1 	(obj:6)
t_x_516                                             1 	(obj:36)
t_x_518                                             1 	(obj:11)
t_x_520                                             1 	(obj:12)
t_x_524                                             1 	(obj:36)
t_x_527                                             1 	(obj:71)
t_x_528                                             1 	(obj:40)
t_x_538                                             1 	(obj:10)
t_x_539                                             1 	(obj:35)
t_x_540                                             1 	(obj:10)
t_x_541                                             1 	(obj:9)
t_x_543                                             1 	(obj:5)
t_x_549                                             1 	(obj:13)
t_x_551                                             1 	(obj:54)
t_x_556                                             1 	(obj:19)
t_x_558                                             1 	(obj:12)
t_x_563                                             1 	(obj:17)
t_x_566                                             1 	(obj:24)
t_x_567                                             1 	(obj:68)
t_x_571                                             1 	(obj:14)
t_x_574                                             1 	(obj:60)
t_x_575                                             1 	(obj:24)
t_x_576                                             1 	(obj:1)
t_x_580                                             1 	(obj:15)
t_x_583                                             1 	(obj:8)
t_x_585                                             1 	(obj:49)
t_x_586                                             1 	(obj:8)
t_x_587                                             1 	(obj:9)
t_x_591                                             1 	(obj:20)
t_x_593                                             1 	(obj:34)
t_x_594                                             1 	(obj:1)
t_x_595                                             1 	(obj:7)
t_x_600                                             1 	(obj:27)
t_x_604                                             1 	(obj:7)
t_x_606                                             1 	(obj:3)
t_x_615                                             1 	(obj:14)
t_x_617                                             1 	(obj:3)
t_x_620                                             1 	(obj:32)
t_x_623                                             1 	(obj:43)
t_x_624                                             1 	(obj:8)
t_x_625                                             1 	(obj:3)
t_x_627                                             1 	(obj:2)
t_x_628                                             1 	(obj:33)
t_x_629                                             1 	(obj:6)
t_x_632                                             1 	(obj:4)
t_x_641                                             1 	(obj:43)
t_x_647                                             1 	(obj:8)
t_x_650                                             1 	(obj:21)
t_x_653                                             1 	(obj:34)
t_x_654                                             1 	(obj:24)
t_x_656                                             1 	(obj:24)
t_x_659                                             1 	(obj:9)
t_x_667                                             1 	(obj:28)
t_x_669                                             1 	(obj:33)
t_x_672                                             1 	(obj:4)
t_x_673                                             1 	(obj:8)
t_x_674                                             1 	(obj:46)
t_x_675                                             1 	(obj:44)
t_x_676                                             1 	(obj:14)
t_x_677                                             1 	(obj:7)
t_x_678                                             1 	(obj:41)
t_x_679                                             1 	(obj:20)
t_x_680                                             1 	(obj:17)
t_x_689                                             1 	(obj:24)
t_x_690                                             1 	(obj:42)
t_x_699                                             1 	(obj:10)
t_x_700                                             1 	(obj:26)
t_x_701                                             1 	(obj:9)
t_x_704                                             1 	(obj:6)
t_x_707                                             1 	(obj:4)
t_x_710                                             1 	(obj:4)
t_x_713                                             1 	(obj:24)
t_x_714                                             1 	(obj:54)
t_x_715                                             1 	(obj:14)
t_x_719                                             1 	(obj:15)
t_x_722                                             1 	(obj:43)
t_x_732                                             1 	(obj:17)
t_x_734                                             1 	(obj:8)
t_x_740                                             1 	(obj:10)
t_x_743                                             1 	(obj:35)
t_x_747                                             1 	(obj:0)
t_x_749                                             1 	(obj:8)
t_x_751                                             1 	(obj:7)
t_x_754                                             1 	(obj:17)
t_x_762                                             1 	(obj:21)
t_x_766                                             1 	(obj:13)
t_x_772                                             1 	(obj:20)
t_x_774                                             1 	(obj:5)
t_x_778                                             1 	(obj:15)
t_x_785                                             1 	(obj:4)
t_x_788                                             1 	(obj:41)
t_x_794                                             1 	(obj:21)
t_x_795                                             1 	(obj:13)
t_x_797                                             1 	(obj:5)
t_x_798                                             1 	(obj:31)
t_x_802                                             1 	(obj:74)
t_x_813                                             1 	(obj:8)
t_x_816                                             1 	(obj:24)
t_x_818                                             1 	(obj:4)
t_x_821                                             1 	(obj:13)
t_x_828                                             1 	(obj:2)
t_x_829                                             1 	(obj:9)
t_x_840                                             1 	(obj:15)
t_x_849                                             1 	(obj:24)
t_x_857                                             1 	(obj:19)
t_x_858                                             1 	(obj:12)
t_x_863                                             1 	(obj:22)
t_x_865                                             1 	(obj:4)
t_x_872                                             1 	(obj:13)
t_x_875                                             1 	(obj:40)
t_x_881                                             1 	(obj:29)
t_x_883                                             1 	(obj:62)
t_x_889                                             1 	(obj:46)
t_x_892                                             1 	(obj:33)
t_x_895                                             1 	(obj:26)
t_x_901                                             1 	(obj:14)
t_x_907                                             1 	(obj:21)
t_x_908                                             1 	(obj:26)
t_x_909                                             1 	(obj:14)
t_x_914                                             1 	(obj:30)
t_x_916                                             1 	(obj:2)
t_x_918                                             1 	(obj:10)
t_x_919                                             1 	(obj:13)
t_x_921                                             1 	(obj:0)
t_x_925                                             1 	(obj:25)
t_x_926                                             1 	(obj:16)
t_x_927                                             1 	(obj:21)
t_x_928                                             1 	(obj:15)
t_x_930                                             1 	(obj:8)
t_x_931                                             1 	(obj:37)
t_x_932                                             1 	(obj:7)
t_x_938                                             1 	(obj:3)
t_x_940                                             1 	(obj:16)
t_x_943                                             1 	(obj:1)
t_x_949                                             1 	(obj:0)
t_x_964                                             1 	(obj:33)
t_x_966                                             1 	(obj:11)
t_x_969                                             1 	(obj:41)
t_x_971                                             1 	(obj:36)
t_x_976                                             1 	(obj:1)
t_x_979                                             1 	(obj:9)
t_x_981                                             1 	(obj:35)
t_x_986                                             1 	(obj:0)
t_x_987                                             1 	(obj:21)
t_x_994                                             1 	(obj:16)
t_x_1000                                            1 	(obj:2)
t_x_1005                                            1 	(obj:16)
t_x_1009                                            1 	(obj:29)
t_x_1010                                            1 	(obj:1)
t_x_1011                                            1 	(obj:28)
t_x_1012                                            1 	(obj:31)
t_x_1017                                            1 	(obj:8)
t_x_1020                                            1 	(obj:20)
t_x_1021                                            1 	(obj:27)
t_x_1022                                            1 	(obj:14)
t_x_1025                                            1 	(obj:21)
t_x_1027                                            1 	(obj:9)
t_x_1028                                            1 	(obj:1)
t_x_1033                                            1 	(obj:1)
t_x_1036                                            1 	(obj:7)
t_x_1038                                            1 	(obj:6)
t_x_1039                                            1 	(obj:13)
t_x_1044                                            1 	(obj:18)
t_x_1046                                            1 	(obj:22)
t_x_1049                                            1 	(obj:12)
t_x_1054                                            1 	(obj:22)
t_x_1055                                            1 	(obj:45)
t_x_1057                                            1 	(obj:8)
t_x_1059                                            1 	(obj:20)
t_x_1060                                            1 	(obj:25)
t_x_1065                                            1 	(obj:1)
t_x_1066                                            1 	(obj:44)
t_x_1070                                            1 	(obj:14)
t_x_1072                                            1 	(obj:42)
t_x_1073                                            1 	(obj:8)
t_x_1075                                            1 	(obj:11)
t_x_1077                                            1 	(obj:14)
t_x_1078                                            1 	(obj:31)
t_x_1082                                            1 	(obj:42)
t_x_1086                                            1 	(obj:4)
t_x_1088                                            1 	(obj:18)
t_x_1093                                            1 	(obj:11)
t_x_1100                                            1 	(obj:6)
t_x_1105                                            1 	(obj:24)
t_x_1106                                            1 	(obj:0)
t_x_1108                                            1 	(obj:1)
t_x_1113                                            1 	(obj:2)
t_x_1115                                            1 	(obj:28)
t_x_1116                                            1 	(obj:17)
t_x_1117                                            1 	(obj:21)
t_x_1118                                            1 	(obj:6)
t_x_1122                                            1 	(obj:1)
t_x_1124                                            1 	(obj:12)
t_x_1125                                            1 	(obj:15)
t_x_1126                                            1 	(obj:16)
t_x_1131                                            1 	(obj:57)
t_x_1140                                            1 	(obj:30)
t_x_1143                                            1 	(obj:9)
t_x_1150                                            1 	(obj:24)
t_x_1159                                            1 	(obj:12)
t_x_1160                                            1 	(obj:0)
t_x_1174                                            1 	(obj:17)
t_x_1176                                            1 	(obj:45)
t_x_1179                                            1 	(obj:3)
t_x_1181                                            1 	(obj:5)
t_x_1184                                            1 	(obj:4)
t_x_1186                                            1 	(obj:5)
t_x_1187                                            1 	(obj:15)
t_x_1191                                            1 	(obj:3)
t_x_1192                                            1 	(obj:18)
t_x_1204                                            1 	(obj:29)
t_x_1208                                            1 	(obj:24)
t_x_1215                                            1 	(obj:11)
t_x_1216                                            1 	(obj:29)
t_x_1218                                            1 	(obj:10)
t_x_1223                                            1 	(obj:11)
t_x_1226                                            1 	(obj:16)
t_x_1227                                            1 	(obj:19)
t_x_1228                                            1 	(obj:24)
t_x_1235                                            1 	(obj:12)
t_x_1236                                            1 	(obj:4)
t_x_1237                                            1 	(obj:8)
t_x_1239                                            1 	(obj:52)
t_x_1244                                            1 	(obj:18)
t_x_1246                                            1 	(obj:8)
t_x_1249                                            1 	(obj:0)
t_x_1251                                            1 	(obj:29)
t_x_1254                                            1 	(obj:44)
t_x_1256                                            1 	(obj:18)
t_x_1261                                            1 	(obj:43)
t_x_1263                                            1 	(obj:33)
t_x_1266                                            1 	(obj:34)
t_x_1277                                            1 	(obj:3)
t_x_1283                                            1 	(obj:52)
t_x_1284                                            1 	(obj:11)
t_x_1287                                            1 	(obj:1)
t_x_1288                                            1 	(obj:16)
t_x_1291                                            1 	(obj:51)
t_x_1297                                            1 	(obj:19)
t_x_1299                                            1 	(obj:20)
t_x_1302                                            1 	(obj:24)
t_x_1307                                            1 	(obj:8)
t_x_1310                                            1 	(obj:21)
t_x_1313                                            1 	(obj:5)
t_x_1316                                            1 	(obj:42)
t_x_1323                                            1 	(obj:2)
t_x_1327                                            1 	(obj:2)
t_x_1330                                            1 	(obj:42)
t_x_1332                                            1 	(obj:3)
t_x_1334                                            1 	(obj:2)
t_x_1336                                            1 	(obj:0)
t_x_1338                                            1 	(obj:2)
t_x_1348                                            1 	(obj:35)
t_x_1355                                            1 	(obj:8)
t_x_1356                                            1 	(obj:19)
t_x_1358                                            1 	(obj:22)
t_x_1359                                            1 	(obj:34)
t_x_1362                                            1 	(obj:1)
t_x_1363                                            1 	(obj:17)
t_x_1366                                            1 	(obj:13)
t_x_1367                                            1 	(obj:16)
t_x_1369                                            1 	(obj:0)
t_x_1371                                            1 	(obj:24)
t_x_1372                                            1 	(obj:46)
t_x_1373                                            1 	(obj:46)
t_x_1375                                            1 	(obj:21)
t_x_1379                                            1 	(obj:5)
t_x_1383                                            1 	(obj:4)
t_x_1388                                            1 	(obj:23)
t_x_1389                                            1 	(obj:7)
t_x_1391                                            1 	(obj:7)
t_x_1394                                            1 	(obj:19)
t_x_1400                                            1 	(obj:32)
t_x_1404                                            1 	(obj:12)
t_x_1406                                            1 	(obj:38)
t_x_1408                                            1 	(obj:11)
t_x_1409                                            1 	(obj:6)
t_x_1411                                            1 	(obj:25)
t_x_1412                                            1 	(obj:10)
t_x_1415                                            1 	(obj:19)
t_x_1418                                            1 	(obj:28)
t_x_1421                                            1 	(obj:27)
t_x_1426                                            1 	(obj:4)
t_x_1427                                            1 	(obj:8)
t_x_1428                                            1 	(obj:11)
t_x_1430                                            1 	(obj:5)
t_x_1439                                            1 	(obj:2)
t_x_1442                                            1 	(obj:61)
t_x_1446                                            1 	(obj:1)
t_x_1447                                            1 	(obj:3)
t_x_1457                                            1 	(obj:5)
t_x_1461                                            1 	(obj:11)
t_x_1462                                            1 	(obj:16)
t_x_1465                                            1 	(obj:0)
t_x_1472                                            1 	(obj:17)
t_x_1477                                            1 	(obj:15)
t_x_1478                                            1 	(obj:30)
t_x_1479                                            1 	(obj:6)
t_x_1481                                            1 	(obj:30)
t_x_1484                                            1 	(obj:21)
t_x_1486                                            1 	(obj:20)
t_x_1497                                            1 	(obj:32)
t_x_1499                                            1 	(obj:32)
t_x_1500                                            1 	(obj:5)
t_x_1502                                            1 	(obj:9)
t_x_1504                                            1 	(obj:6)
t_x_1507                                            1 	(obj:21)
t_x_1514                                            1 	(obj:25)
t_x_1515                                            1 	(obj:25)
t_x_1516                                            1 	(obj:5)
t_x_1517                                            1 	(obj:21)
t_x_1518                                            1 	(obj:7)
t_x_1521                                            1 	(obj:16)
t_x_1522                                            1 	(obj:10)
t_x_1528                                            1 	(obj:13)
t_x_1537                                            1 	(obj:23)
t_x_1547                                            1 	(obj:3)
t_x_1555                                            1 	(obj:4)
t_x_1557                                            1 	(obj:40)
t_x_1558                                            1 	(obj:8)
t_x_1560                                            1 	(obj:10)
t_x_1564                                            1 	(obj:26)
t_x_1567                                            1 	(obj:5)
t_x_1569                                            1 	(obj:3)
t_x_1570                                            1 	(obj:14)
t_x_1575                                            1 	(obj:16)
t_x_1577                                            1 	(obj:7)
t_x_1581                                            1 	(obj:4)
t_x_1583                                            1 	(obj:9)
t_x_1584                                            1 	(obj:25)
t_x_1587                                            1 	(obj:12)
t_x_1593                                            1 	(obj:3)
t_x_1597                                            1 	(obj:0)
t_x_1598                                            1 	(obj:30)
t_x_1599                                            1 	(obj:5)
t_x_1601                                            1 	(obj:14)
t_x_1605                                            1 	(obj:20)
t_x_1607                                            1 	(obj:13)
t_x_1617                                            1 	(obj:5)
t_x_1623                                            1 	(obj:18)
t_x_1634                                            1 	(obj:2)
t_x_1635                                            1 	(obj:68)
t_x_1636                                            1 	(obj:11)
t_x_1637                                            1 	(obj:28)
t_x_1638                                            1 	(obj:22)
t_x_1640                                            1 	(obj:1)
t_x_1643                                            1 	(obj:5)
t_x_1648                                            1 	(obj:20)
t_x_1649                                            1 	(obj:48)
t_x_1650                                            1 	(obj:1)
t_x_1651                                            1 	(obj:10)
t_x_1654                                            1 	(obj:35)
t_x_1657                                            1 	(obj:21)
t_x_1661                                            1 	(obj:10)
t_x_1665                                            1 	(obj:21)
t_x_1667                                            1 	(obj:24)
t_x_1668                                            1 	(obj:39)
t_x_1671                                            1 	(obj:24)
t_x_1673                                            1 	(obj:20)
t_x_1685                                            1 	(obj:28)
t_x_1690                                            1 	(obj:8)
t_x_1698                                            1 	(obj:36)
t_x_1708                                            1 	(obj:7)
t_x_1709                                            1 	(obj:3)
t_x_1716                                            1 	(obj:55)
t_x_1717                                            1 	(obj:9)
t_x_1726                                            1 	(obj:8)
t_x_1731                                            1 	(obj:19)
t_x_1737                                            1 	(obj:4)
t_x_1738                                            1 	(obj:10)
t_x_1745                                            1 	(obj:8)
t_x_1748                                            1 	(obj:21)
t_x_1753                                            1 	(obj:20)
t_x_1757                                            1 	(obj:45)
t_x_1758                                            1 	(obj:36)
t_x_1762                                            1 	(obj:6)
t_x_1766                                            1 	(obj:47)
t_x_1770                                            1 	(obj:42)
t_x_1772                                            1 	(obj:14)
t_x_1774                                            1 	(obj:21)
t_x_1780                                            1 	(obj:6)
t_x_1781                                            1 	(obj:27)
t_x_1782                                            1 	(obj:22)
t_x_1786                                            1 	(obj:11)
t_x_1787                                            1 	(obj:32)
t_x_1788                                            1 	(obj:12)
t_x_1809                                            1 	(obj:3)
t_x_1815                                            1 	(obj:21)
t_x_1816                                            1 	(obj:4)
t_x_1821                                            1 	(obj:33)
t_x_1822                                            1 	(obj:34)
t_x_1829                                            1 	(obj:2)
t_x_1831                                            1 	(obj:3)
t_x_1832                                            1 	(obj:10)
t_x_1834                                            1 	(obj:6)
t_x_1836                                            1 	(obj:24)
t_x_1840                                            1 	(obj:2)
t_x_1841                                            1 	(obj:20)
t_x_1845                                            1 	(obj:2)
t_x_1847                                            1 	(obj:25)
t_x_1850                                            1 	(obj:7)
t_x_1852                                            1 	(obj:40)
t_x_1854                                            1 	(obj:11)
t_x_1855                                            1 	(obj:32)
t_x_1864                                            1 	(obj:10)
t_x_1866                                            1 	(obj:34)
t_x_1870                                            1 	(obj:31)
t_x_1873                                            1 	(obj:14)
t_x_1876                                            1 	(obj:20)
t_x_1877                                            1 	(obj:15)
t_x_1879                                            1 	(obj:8)
t_x_1882                                            1 	(obj:8)
t_x_1883                                            1 	(obj:47)
t_x_1885                                            1 	(obj:1)
t_x_1888                                            1 	(obj:5)
t_x_1893                                            1 	(obj:10)
t_x_1897                                            1 	(obj:2)
t_x_1901                                            1 	(obj:43)
t_x_1906                                            1 	(obj:2)
t_x_1912                                            1 	(obj:40)
t_x_1913                                            1 	(obj:6)
t_x_1914                                            1 	(obj:0)
t_x_1915                                            1 	(obj:6)
t_x_1924                                            1 	(obj:12)
t_x_1927                                            1 	(obj:28)
t_x_1928                                            1 	(obj:24)
t_x_1930                                            1 	(obj:9)
t_x_1931                                            1 	(obj:10)
t_x_1932                                            1 	(obj:18)
t_x_1933                                            1 	(obj:10)
t_x_1934                                            1 	(obj:11)
t_x_1935                                            1 	(obj:5)
t_x_1940                                            1 	(obj:28)
t_x_1941                                            1 	(obj:8)
t_x_1943                                            1 	(obj:11)
t_x_1947                                            1 	(obj:8)
t_x_1949                                            1 	(obj:15)
t_x_1951                                            1 	(obj:55)
t_x_1952                                            1 	(obj:16)
t_x_1957                                            1 	(obj:21)
t_x_1960                                            1 	(obj:35)
t_x_1963                                            1 	(obj:1)
t_x_1965                                            1 	(obj:31)
t_x_1970                                            1 	(obj:8)
t_x_1972                                            1 	(obj:17)
t_x_1973                                            1 	(obj:9)
t_x_1975                                            1 	(obj:4)
t_x_1978                                            1 	(obj:29)
t_x_1981                                            1 	(obj:3)
t_x_1984                                            1 	(obj:53)
t_x_1992                                            1 	(obj:3)
t_x_1993                                            1 	(obj:6)
